Data path: /scratch/opt/lxu/CFLG/benchmarks/Kgroup_A
Instance: K100.3.con.red
Result path: /scratch/opt/lxu/CFLG/results/Kgroup_A
Solver: Gurobi
Time limit: 7200
Formulation: LEFPAI
Cover: Small
julia --project=. src/main.jl /scratch/opt/lxu/CFLG/benchmarks/Kgroup_A K100.3.con.red /scratch/opt/lxu/CFLG/results/Kgroup_A Gurobi 7200 LEFPAI Small
The latest version of Julia in the `release` channel is 1.11.5+0.x64.linux.gnu. You currently have `1.11.4+0.x64.linux.gnu` installed. Run:

  juliaup update

in your terminal shell to install Julia 1.11.5+0.x64.linux.gnu and update the `release` channel to that version.
/scratch/opt/lxu/CFLG/benchmarks/Kgroup_A Gurobi 7200.0 /scratch/opt/lxu/CFLG/results/Kgroup_A K100.3.con.red LEFPAI Small
/scratch/opt/lxu/CFLG/benchmarks/Kgroup_A/K100.3.con.red

 read graph
data loaded


after absorb:26 26

max_piece:28
problem_graph/original graph: node: 43/26 edge: 140/123 dlt: 0.037777522644551434 break_avg_len: 0.13276100815085215 break_max_len: 1.0Vbar/V, Ebar/E(43, 43, 140, 140)
Set parameter TokenServer to value "solice01.zib.de"
Set parameter Threads to value 1
Set parameter OutputFlag to value 1
Gurobi Optimizer version 12.0.1 build v12.0.1rc0 (linux64 - "Debian GNU/Linux 12 (bookworm)")

CPU model: Intel(R) Xeon(R) Gold 5222 CPU @ 3.80GHz, instruction set [SSE2|AVX|AVX2|AVX512]
Thread count: 8 physical cores, 16 logical processors, using up to 1 threads

Non-default parameters:
Threads  1

Optimize a model with 183 rows, 420 columns and 700 nonzeros
Model fingerprint: 0x6dba313d
Coefficient statistics:
  Matrix range     [1e+00, 1e+00]
  Objective range  [1e+00, 1e+00]
  Bounds range     [1e+00, 1e+00]
  RHS range        [0e+00, 0e+00]
Presolve removed 183 rows and 420 columns
Presolve time: 0.02s
Presolve: All rows and columns removed
Iteration    Objective       Primal Inf.    Dual Inf.      Time
       0   -0.0000000e+00   0.000000e+00   0.000000e+00      0s

Solved in 0 iterations and 0.02 seconds (0.00 work units)
Optimal objective -0.000000000e+00

User-callback calls 35, time in user-callback 0.00 sec
elapsed CPU time: 0.998434 seconds
Set parameter TokenServer to value "solice01.zib.de"
Set parameter Threads to value 1
Set parameter OutputFlag to value 1
Set parameter MIPGap to value 0.0001
Set parameter MIPGapAbs to value 0.999998
Set parameter TimeLimit to value 7199.001566

 more cuts: false 0.037777522644551434 false
is_attach:trueformulation:LEFPAI0 140 0

 model loaded

Gurobi Optimizer version 12.0.1 build v12.0.1rc0 (linux64 - "Debian GNU/Linux 12 (bookworm)")

CPU model: Intel(R) Xeon(R) Gold 5222 CPU @ 3.80GHz, instruction set [SSE2|AVX|AVX2|AVX512]
Thread count: 8 physical cores, 16 logical processors, using up to 1 threads

Non-default parameters:
TimeLimit  7199.001566
MIPGapAbs  0.999998
Threads  1

Optimize a model with 1741 rows, 1809 columns and 4717 nonzeros
Model fingerprint: 0xf94019fa
Model has 1163 simple general constraints
  1163 INDICATOR
Variable types: 323 continuous, 1486 integer (1486 binary)
Coefficient statistics:
  Matrix range     [2e-03, 1e+00]
  Objective range  [1e+00, 1e+00]
  Bounds range     [2e-03, 1e+00]
  RHS range        [2e-03, 1e+00]
  GenCon rhs range [4e-08, 1e+00]
  GenCon coe range [1e+00, 1e+00]
Presolve removed 1366 rows and 1496 columns
Presolve time: 0.03s
Presolved: 375 rows, 313 columns, 1889 nonzeros
Variable types: 55 continuous, 258 integer (254 binary)
Found heuristic solution: objective 115.0000000
Found heuristic solution: objective 114.0000000
Found heuristic solution: objective 110.0000000

Root relaxation: objective 9.500000e+01, 91 iterations, 0.00 seconds (0.00 work units)

    Nodes    |    Current Node    |     Objective Bounds      |     Work
 Expl Unexpl |  Obj  Depth IntInf | Incumbent    BestBd   Gap | It/Node Time

H    0     0                      95.0000000   95.00000  0.00%     -    0s
     0     0   95.00000    0   10   95.00000   95.00000  0.00%     -    0s

Explored 1 nodes (91 simplex iterations) in 0.04 seconds (0.04 work units)
Thread count was 1 (of 16 available processors)

Solution count 4: 95 110 114 115 

Optimal solution found (tolerance 1.00e-04)
Warning: max constraint violation (1.0000e-06) exceeds tolerance
Warning: max general constraint violation (1.0000e-06) exceeds tolerance
Best objective 9.500000000000e+01, best bound 9.500000000000e+01, gap 0.0000%

User-callback calls 1871, time in user-callback 0.00 sec

 sepatime0 0 0
95.0Stat(MathOptInterface.OPTIMAL, 95.0, 95.0, 0.0, 0.0, 0.998434, 0.03990006446838379, 1, Main.CFLG.LEFPAI, "", #undef)
